0 415.00 115.00
1 405.00 115.00
2 395.00 115.00
3 385.00 115.00
4 385.00 115.00
5 375.00 115.00
6 365.00 115.00
7 365.00 115.00
8 365.00 115.00
9 365.00 125.00
10 365.00 135.00
11 365.00 135.00
12 365.00 135.00
13 375.00 135.00
14 385.00 135.00
15 385.00 135.00
16 395.00 135.00
17 405.00 135.00
18 415.00 135.00
19 425.00 135.00
20 425.00 135.00
21 435.00 135.00
22 445.00 135.00
23 455.00 135.00
24 455.00 135.00
25 465.00 135.00
26 465.00 145.00
27 465.00 155.00
28 465.00 155.00
29 465.00 165.00
30 455.00 165.00
31 455.00 165.00
32 445.00 165.00
33 435.00 165.00
34 425.00 165.00
35 425.00 165.00
36 415.00 165.00
37 405.00 165.00
38 395.00 165.00
39 385.00 165.00
40 385.00 165.00
41 375.00 165.00
42 365.00 165.00
43 365.00 165.00
44 365.00 165.00
45 365.00 175.00
46 365.00 185.00
47 365.00 185.00
48 365.00 185.00
49 375.00 185.00
50 385.00 185.00
51 385.00 185.00
52 395.00 185.00
53 405.00 185.00
54 415.00 185.00
55 425.00 185.00
56 425.00 185.00
57 435.00 185.00
58 445.00 185.00
59 455.00 185.00
60 465.00 185.00
61 465.00 185.00
62 475.00 185.00
63 485.00 185.00
64 485.00 185.00
65 485.00 185.00
66 485.00 175.00
67 485.00 165.00
68 485.00 165.00
69 485.00 155.00
70 485.00 145.00
71 485.00 135.00
72 485.00 135.00
73 485.00 125.00
74 485.00 115.00
75 485.00 115.00
76 485.00 115.00
77 475.00 115.00
78 465.00 115.00
79 465.00 115.00
80 455.00 115.00
81 455.00 115.00
82 445.00 115.00
83 435.00 115.00
84 435.00 105.00
85 435.00 105.00
86 435.00 95.00
87 435.00 85.00
88 435.00 75.00
89 435.00 75.00
90 435.00 65.00
91 435.00 55.00
92 435.00 45.00
93 435.00 35.00
94 435.00 35.00
95 435.00 25.00
96 435.00 15.00
97 435.00 15.00
98 435.00 15.00
99 425.00 15.00
100 415.00 15.00
101 415.00 15.00
102 405.00 15.00
103 395.00 15.00
104 385.00 15.00
105 375.00 15.00
106 375.00 15.00
107 365.00 15.00
108 355.00 15.00
109 345.00 15.00
110 335.00 15.00
111 335.00 15.00
112 325.00 15.00
113 315.00 15.00
114 315.00 15.00
115 315.00 15.00
116 315.00 25.00
117 315.00 35.00
118 315.00 35.00
119 315.00 35.00
120 325.00 35.00
121 335.00 35.00
122 335.00 35.00
123 345.00 35.00
124 355.00 35.00
125 365.00 35.00
126 375.00 35.00
127 375.00 35.00
128 385.00 35.00
129 395.00 35.00
130 405.00 35.00
131 405.00 35.00
132 415.00 35.00
133 415.00 45.00
134 415.00 55.00
135 415.00 55.00
136 415.00 65.00
137 405.00 65.00
138 405.00 65.00
139 395.00 65.00
140 385.00 65.00
141 375.00 65.00
142 375.00 65.00
143 365.00 65.00
144 355.00 65.00
145 345.00 65.00
146 335.00 65.00
147 335.00 65.00
148 325.00 65.00
149 315.00 65.00
150 315.00 65.00
151 315.00 65.00
152 315.00 75.00
153 315.00 85.00
154 315.00 85.00
155 315.00 85.00
156 325.00 85.00
157 335.00 85.00
158 335.00 85.00
159 345.00 85.00
160 355.00 85.00
161 365.00 85.00
162 375.00 85.00
163 375.00 85.00
164 385.00 85.00
165 395.00 85.00
166 405.00 85.00
167 415.00 85.00
